39
   36   37   38
C     0.0000   0.0000   0.0000
N     0.7700  -1.3336   0.0000
C     2.3100  -1.3336   0.0000
N     3.0800   0.0000   0.0000
C     2.3100   1.3336   0.0000
N     0.7700   1.3336   0.0000
C    -1.4700   0.0000   0.0000
C    -2.1700   1.2124   0.0000
C    -3.5700   1.2124   0.0000
C    -4.2700   0.0000   0.0000
C    -3.5700  -1.2124   0.0000
C    -2.1700  -1.2124   0.0000
C     3.0450  -2.6067   0.0000
C     2.3450  -3.8191   0.0000
C     3.0450  -5.0315   0.0000
C     4.4450  -5.0315   0.0000
C     5.1450  -3.8191   0.0000
C     4.4450  -2.6067   0.0000
C     3.0450   2.6067   0.0000
C     4.4450   2.6067   0.0000
C     5.1450   3.8191   0.0000
C     4.4450   5.0315   0.0000
C     3.0450   5.0315   0.0000
C     2.3450   3.8191   0.0000
H    -1.6250   2.1564   0.0000
H    -4.1150   2.1564   0.0000
H    -4.1150  -2.1564   0.0000
H    -1.6250  -2.1564   0.0000
H     1.2550  -3.8191   0.0000
H     2.5000  -5.9755   0.0000
H     6.2350  -3.8191   0.0000
H     4.9900  -1.6628   0.0000
H     4.9900   1.6628   0.0000
H     6.2350   3.8191   0.0000
H     2.5000   5.9755   0.0000
H     1.2550   3.8191   0.0000
X    -5.0200   0.0000   0.0000
X     4.8200  -5.6810   0.0000
X     4.8200   5.6810   0.0000
   0    1 A
   0    5 A
   1    2 A
   2    3 A
   3    4 A
   4    5 A
   0    6 S
   6    7 A
   7    8 A
   8    9 A
   9   10 A
  10   11 A
  11    6 A
   7   24 S
   8   25 S
  10   26 S
  11   27 S
   9   36 S
   2   12 S
  12   13 A
  13   14 A
  14   15 A
  15   16 A
  16   17 A
  17   12 A
  13   28 S
  14   29 S
  16   30 S
  17   31 S
  15   37 S
   4   18 S
  18   19 A
  19   20 A
  20   21 A
  21   22 A
  22   23 A
  23   18 A
  19   32 S
  20   33 S
  22   34 S
  23   35 S
  21   38 S
