29
Generated from [Cr(III)3O(COO)6Cl].xyz: terminal Cl replaced by F; Cr-F distance set to 1.90 A
Cr    46.424300     5.593000     0.000000
O     49.466300     5.780200    -1.432500
O     49.675100     2.905400     1.458800
O     47.395900     6.668400    -1.369900
O     45.077200     5.056300     1.369700
O     47.824700     1.603400     1.445300
X     48.828200     7.240600    -2.661400
C     48.585300     6.553600    -1.823500
X     49.342000     1.399600     2.739000
C     48.942700     1.976000     1.874200
O     45.080700     5.062300    -1.375500
O     45.176900     2.810900    -1.418600
Cr    46.636800     2.320000     0.000000
O     49.676900     2.891100    -1.445100
O     49.465900     5.794000     1.418200
O     47.812500     1.609400    -1.458100
O     45.189900     2.806200     1.432000
O     47.388600     6.667300     1.376300
X     49.340200     1.397100    -2.738100
C     48.938600     1.972400    -1.873700
X     48.829200     7.249200     2.654100
C     48.583100     6.560900     1.818200
Cr    49.418400     4.254300     0.000000
X     44.041900     3.912100     2.660400
C     44.771000     3.901200     1.822900
O     47.381200     4.216800     0.000200
X     44.033700     3.914600    -2.653500
C     44.764900     3.905600    -1.817900
F     45.339628     7.152964     0.000000
0 3 S
0 4 S
0 10 S
0 17 S
0 25 S
1 7 S
1 22 S
2 9 S
2 22 S
3 7 D
4 24 D
5 9 D
5 12 S
6 7 S
8 9 S
10 27 D
11 12 S
11 27 S
12 15 S
12 16 S
12 25 S
13 19 S
13 22 S
14 21 S
14 22 S
15 19 D
16 24 S
17 21 D
18 19 S
20 21 S
22 25 S
23 24 S
26 27 S
0 28 S
