28
Generated from CIF data
Ti   48.299000    6.164400    0.000000
 O   51.268300    6.429100   -1.361400
 O   51.533900    3.482900    1.410700
 O   49.184100    7.264600   -1.402400
 O   46.970800    5.681500    1.401000
 O   49.674800    2.228900    1.516700
 X   50.660300    7.888800   -2.619000
 C   50.401200    7.187100   -1.799200
 X   51.283900    1.952800    2.694700
 C   50.832400    2.553600    1.873000
 O   46.948100    5.581800   -1.339200
 O   47.201300    3.353900   -1.468500
Mg   48.576500    2.892000    0.000000
 O   51.629100    3.570900   -1.471700
 O   51.320500    6.352400    1.429200
 O   49.845700    2.211600   -1.368500
 O   47.069200    3.440000    1.316500
 O   49.272500    7.269600    1.339100
 X   51.404500    1.925300   -2.609700
 C   50.960700    2.567500   -1.815700
 X   50.704800    7.860300    2.623300
 C   50.461200    7.152900    1.803700
Mg   51.319700    4.867300    0.000000
 X   45.876300    4.472000    2.579500
 C   46.635200    4.500100    1.770300
 O   49.281900    4.802300   -0.001400
 X   45.964500    4.420900   -2.656200
 C   46.703600    4.422300   -1.828400
0  3  S
0  4  S
0 10  S
0 17  S
0 25  S
1  7  D
1 22 S
2  9  S
2 22 S
3  7  S
4 24 S
5  9  D
5 12 S
6  7  S
8  9  S
10 27 S
11 27 D
11 12 S
12 15 S
12 16 S
12 25 S
13 19 S
13 22 S
14 21 D
14 22 S
15 19 D
16 24 D
17 21 S
18 19 S
20 21 S
22 25 S
23 24 S
26 27 S