28
Generated from CIF data
Ti   46.477600    5.763700    0.000000
 O   49.521100    5.884500   -1.458200
 O   49.730000    3.112300    1.457300
 O   47.478700    6.826800   -1.342600
 O   45.135700    5.191800    1.343700
 O   47.909300    1.768500    1.390800
 X   48.911700    7.395800   -2.638300
 C   48.661500    6.692900   -1.816700
 X   49.482000    1.484600    2.596900
 C   49.036500    2.127200    1.803900
 O   45.160400    5.241000   -1.390000
 O   45.245600    2.989500   -1.389000
Ni   46.710700    2.535700    0.000000
 O   49.727500    3.042800   -1.397100
 O   49.505300    5.955200    1.393900
 O   47.835900    1.800900   -1.463400
 O   45.315100    2.949900    1.463400
 O   47.424100    6.818700    1.389800
 X   49.444900    1.474900   -2.609800
 C   48.999100    2.111700   -1.812300
 X   48.896300    7.429700    2.620200
 C   48.633500    6.725500    1.803600
Ni   49.425700    4.427200    0.000000
 X   44.110400    4.046000    2.644600
 C   44.854200    4.036400    1.821000
 O   47.445000    4.376400    0.000700
 X   44.073100    4.070700   -2.615900
 C   44.826100    4.073900   -1.800500
0   3   S
0   4   S
0  10   S
0  17   S
0  25   S
1   7   S
1  22   S
2   9   S
2  22   S
3   7   D
4  24   D
5   9   D
5  12   S
6   7   S
8   9   S
10  27   D
11 12   S
11 27   S
12 15   S
12 16   S
12 25   S
13 19   S
13 22   S
14 21   S
14 22   S
15 19   D
16 24   S
17 21   D
18 19   S
20 21   S
22 25   S
23 24   S
26 27   S